Version identifier: 12.10.0.0 | 2019-11-26 | 843d4de
CPXPARAM_WorkMem                                 16384
CPXPARAM_MIP_Limits_TreeMemory                   24576
Tried aggregator 2 times.
MIP Presolve eliminated 5 rows and 0 columns.
MIP Presolve added 8 rows and 0 columns.
Aggregator did 30 substitutions.
Reduced MIP has 45 rows, 50 columns, and 222 nonzeros.
Reduced MIP has 50 binaries, 0 generals, 0 SOSs, and 0 indicators.
Presolve time = 0,00 sec. (0,42 ticks)
Found incumbent of value 168,000000 after 0,00 sec. (0,49 ticks)
Probing time = 0,00 sec. (0,23 ticks)
Tried aggregator 1 time.
Detecting symmetries...
Reduced MIP has 45 rows, 50 columns, and 222 nonzeros.
Reduced MIP has 50 binaries, 0 generals, 0 SOSs, and 0 indicators.
Presolve time = 0,00 sec. (0,17 ticks)
Probing time = 0,00 sec. (0,23 ticks)
Clique table members: 211.
MIP emphasis: balance optimality and feasibility.
MIP search method: dynamic search.
Parallel mode: deterministic, using up to 16 threads.
Root relaxation solution time = 0,00 sec. (0,06 ticks)

        Nodes                                         Cuts/
   Node  Left     Objective  IInf  Best Integer    Best Bound    ItCnt     Gap

*     0+    0                          168,0000        0,0000           100,00%
*     0+    0                          161,0000        0,0000           100,00%
*     0+    0                          159,0000        0,0000           100,00%
*     0+    0                          156,0000        0,0000           100,00%
      0     0       84,0000    34      156,0000       84,0000        0   46,15%
      0     0      139,0000    34      156,0000      Cuts: 38       34   10,90%
      0     0      140,0278    34      156,0000      Cuts: 53       53   10,24%
Detecting symmetries...

Repeating presolve.
Tried aggregator 1 time.
MIP Presolve eliminated 22 rows and 22 columns.
Reduced MIP has 23 rows, 28 columns, and 90 nonzeros.
Reduced MIP has 28 binaries, 0 generals, 0 SOSs, and 0 indicators.
Presolve time = 0,00 sec. (0,07 ticks)
Probing time = 0,00 sec. (0,03 ticks)
Tried aggregator 1 time.
Detecting symmetries...
Reduced MIP has 23 rows, 28 columns, and 90 nonzeros.
Reduced MIP has 28 binaries, 0 generals, 0 SOSs, and 0 indicators.
Presolve time = 0,00 sec. (0,07 ticks)
Represolve time = 0,00 sec. (0,38 ticks)
Probing time = 0,00 sec. (0,03 ticks)
Clique table members: 123.
MIP emphasis: balance optimality and feasibility.
MIP search method: dynamic search.
Parallel mode: deterministic, using up to 16 threads.
Root relaxation solution time = 0,00 sec. (0,09 ticks)

        Nodes                                         Cuts/
   Node  Left     Objective  IInf  Best Integer    Best Bound    ItCnt     Gap

*     0+    0                          156,0000      147,5000             5,45%
      0     0      140,0278    19      156,0000      147,5000       72    5,45%
      0     0      141,5933    19      156,0000      Cuts: 63       90    5,45%
      0     0      142,0873    19      156,0000   LiftProj: 5       94    5,45%
      0     0        cutoff            156,0000      156,0000       94    0,00%
Elapsed time = 0,14 sec. (5,50 ticks, tree = 0,01 MB, solutions = 4)

Clique cuts applied:  19
Cover cuts applied:  13
Mixed integer rounding cuts applied:  4
Zero-half cuts applied:  2
Lift and project cuts applied:  1
Gomory fractional cuts applied:  5

Root node processing (before b&c):
  Real time             =    0,14 sec. (5,50 ticks)
Parallel b&c, 16 threads:
  Real time             =    0,00 sec. (0,00 ticks)
  Sync time (average)   =    0,00 sec.
  Wait time (average)   =    0,00 sec.
                          ------------
Total (root+branch&cut) =    0,14 sec. (5,50 ticks)
